\ Model FlowOPT
\ LP format - for model browsing. Use MPS format to capture full model detail.
Maximize
  0.9429573906065776 z[0,1] + 1.401682753716398 z[1,1]
   + 0.6049733007564865 z[2,1] + 1.024910258931436 z[3,1]
   + 0.6883060334631773 z[4,1] + 0.711690483076839 z[5,1]
   + 0.7690248246110971 z[6,1] + 1.361778561386892 z[7,1]
   + 0.8904298158514939 z[8,1] + 0.7498189841148067 z[9,1]
   + 1.785342867577059 z[10,1] + 1.370160641922131 z[11,1]
   + 0.4140650679299521 z[12,1] + 2.504331844109132 z[13,1]
   + 1.1580291680896 z[14,1] + 0.8256746500898475 z[15,1]
   + 1.626164359913582 z[16,1] + 1.286420064375454 z[17,1]
   + 0.1944057084693147 z[18,1] + 1.736095019728699 z[19,1]
   + 1.271789927416276 z[20,1] + 1.463929121956778 z[21,1]
   + 1.903177146992556 z[22,1] + 0.5452394619652854 z[23,1]
   + 1.099271917254808 z[24,1] + 1.074300594495528 z[25,1]
   + 1.818474844600031 z[26,1] + 0.9286260185165467 z[27,1]
   + 0.8077623502306219 z[28,1] + 0.8182827902036111 z[29,1]
   + 1.589554467867218 z[30,1] + 0.698301492400883 z[31,1]
   + 1.105167280002682 z[32,1] + 1.559895877491334 z[33,1]
   + 0.1927931208982989 z[34,1] + 0.8676789939098118 z[35,1]
   + 0.395423501387842 z[36,1] + 0.7439078121939692 z[37,1]
   + 0.5293820376700554 z[38,1] + 1.287098444735762 z[39,1]
   + 1.327809069613647 z[40,1] + 1.453799615084351 z[42,1]
   + 0.9039837671396413 z[43,1] + 0.2593544972808413 z[44,1]
   + 1.318602268217056 z[45,1] + 1.475964846026244 z[46,1]
   + 0.896095058619789 z[47,1] + 0.5512859660972027 z[48,1]
   + 0.9881916417930275 z[49,1] + 0.1808669501081589 z[50,1]
   + 0.4374601010052536 z[51,1] + 0.8218790521482146 z[52,1]
   + 1.645960459031191 z[53,1] + 1.677497066363495 z[54,1]
   + 1.775316109490873 z[55,1] + 0.4084199602428378 z[56,1]
   + 1.81030904522815 z[57,1] + 0.8005252446842387 z[58,1]
   + 1.391079685664717 z[59,1] + 1.85702887480109 z[60,1]
   + 0.6076271017987672 z[61,1] + 0.5908657481949073 z[62,1]
   + 1.093067660246255 z[63,1] + 0.3186252699809869 z[64,1]
   + 1.885478300478285 z[65,1] + 0.5067756407993537 z[66,1]
   + 1.64215739617173 z[67,1] + 0.5614183879558338 z[68,1]
   + 0.7178160499104077 z[69,1] + 1.664087220262956 z[70,1]
   + 0.894091725170405 z[71,1] + 0.7460046874222948 z[72,1]
   + 0.3746312715828943 z[73,1] + 0.4973053044706231 z[74,1]
   + 2.084524362759448 z[75,1] + 1.751936185918372 z[76,1]
   + 0.6515969360967138 z[77,1] + 0.941247847874604 z[78,1]
   + 1.724283486888425 z[79,1] + 0.374472279262504 z[80,1]
   + 1.076652628272656 z[81,1] + 1.665149055415357 z[82,1]
   + 1.316166702817922 z[83,1] + 1.791486579252336 z[84,1]
   + 1.006321264732742 z[85,1] + 0.3097548939833159 z[86,1]
   + 0.9356493149093625 z[87,1] + 1.328441037519873 z[88,1]
   + 0.5012901051390788 z[89,1] + 0.5151893271332268 z[90,1]
   + 1.130184484959415 z[91,1] + 1.557136472110674 z[92,1]
   + 1.074978079840071 z[93,1] + 1.576394815976073 z[94,1]
   + 0.8041000685250422 z[95,1] + 0.6026992961487831 z[96,1]
   + 1.073985893570706 z[97,1] + 0.7737896464210514 z[98,1]
   + 1.267795964277928 z[99,1]
Subject To
 R0: p[1] = 1
 R1: - w[1,0] + zeta[0,1] <= 0
 R2: - w[1,1] + zeta[1,1] <= 0
 R3: - w[1,1] + zeta[2,1] <= 0
 R4: - w[1,0] + zeta[3,1] <= 0
 R5: - w[1,0] + zeta[4,1] <= 0
 R6: - w[1,1] + zeta[5,1] <= 0
 R7: - w[1,1] + zeta[6,1] <= 0
 R8: - w[1,0] + zeta[7,1] <= 0
 R9: - w[1,1] + zeta[8,1] <= 0
 R10: - w[1,1] + zeta[9,1] <= 0
 R11: - w[1,0] + zeta[10,1] <= 0
 R12: - w[1,0] + zeta[11,1] <= 0
 R13: - w[1,1] + zeta[12,1] <= 0
 R14: - w[1,0] + zeta[13,1] <= 0
 R15: - w[1,0] + zeta[14,1] <= 0
 R16: - w[1,0] + zeta[15,1] <= 0
 R17: - w[1,1] + zeta[16,1] <= 0
 R18: - w[1,0] + zeta[17,1] <= 0
 R19: - w[1,1] + zeta[18,1] <= 0
 R20: - w[1,0] + zeta[19,1] <= 0
 R21: - w[1,0] + zeta[20,1] <= 0
 R22: - w[1,1] + zeta[21,1] <= 0
 R23: - w[1,0] + zeta[22,1] <= 0
 R24: - w[1,1] + zeta[23,1] <= 0
 R25: - w[1,1] + zeta[24,1] <= 0
 R26: - w[1,1] + zeta[25,1] <= 0
 R27: - w[1,0] + zeta[26,1] <= 0
 R28: - w[1,0] + zeta[27,1] <= 0
 R29: - w[1,1] + zeta[28,1] <= 0
 R30: - w[1,1] + zeta[29,1] <= 0
 R31: - w[1,1] + zeta[30,1] <= 0
 R32: - w[1,1] + zeta[31,1] <= 0
 R33: - w[1,0] + zeta[32,1] <= 0
 R34: - w[1,0] + zeta[33,1] <= 0
 R35: - w[1,1] + zeta[34,1] <= 0
 R36: - w[1,1] + zeta[35,1] <= 0
 R37: - w[1,1] + zeta[36,1] <= 0
 R38: - w[1,0] + zeta[37,1] <= 0
 R39: - w[1,0] + zeta[38,1] <= 0
 R40: - w[1,1] + zeta[39,1] <= 0
 R41: - w[1,0] + zeta[40,1] <= 0
 R42: - w[1,0] + zeta[41,1] <= 0
 R43: - w[1,1] + zeta[42,1] <= 0
 R44: - w[1,0] + zeta[43,1] <= 0
 R45: - w[1,1] + zeta[44,1] <= 0
 R46: - w[1,0] + zeta[45,1] <= 0
 R47: - w[1,0] + zeta[46,1] <= 0
 R48: - w[1,1] + zeta[47,1] <= 0
 R49: - w[1,1] + zeta[48,1] <= 0
 R50: - w[1,1] + zeta[49,1] <= 0
 R51: - w[1,0] + zeta[50,1] <= 0
 R52: - w[1,1] + zeta[51,1] <= 0
 R53: - w[1,0] + zeta[52,1] <= 0
 R54: - w[1,0] + zeta[53,1] <= 0
 R55: - w[1,0] + zeta[54,1] <= 0
 R56: - w[1,1] + zeta[55,1] <= 0
 R57: - w[1,0] + zeta[56,1] <= 0
 R58: - w[1,0] + zeta[57,1] <= 0
 R59: - w[1,1] + zeta[58,1] <= 0
 R60: - w[1,0] + zeta[59,1] <= 0
 R61: - w[1,1] + zeta[60,1] <= 0
 R62: - w[1,1] + zeta[61,1] <= 0
 R63: - w[1,1] + zeta[62,1] <= 0
 R64: - w[1,1] + zeta[63,1] <= 0
 R65: - w[1,1] + zeta[64,1] <= 0
 R66: - w[1,0] + zeta[65,1] <= 0
 R67: - w[1,1] + zeta[66,1] <= 0
 R68: - w[1,0] + zeta[67,1] <= 0
 R69: - w[1,1] + zeta[68,1] <= 0
 R70: - w[1,0] + zeta[69,1] <= 0
 R71: - w[1,0] + zeta[70,1] <= 0
 R72: - w[1,0] + zeta[71,1] <= 0
 R73: - w[1,1] + zeta[72,1] <= 0
 R74: - w[1,1] + zeta[73,1] <= 0
 R75: - w[1,1] + zeta[74,1] <= 0
 R76: - w[1,0] + zeta[75,1] <= 0
 R77: - w[1,0] + zeta[76,1] <= 0
 R78: - w[1,0] + zeta[77,1] <= 0
 R79: - w[1,1] + zeta[78,1] <= 0
 R80: - w[1,0] + zeta[79,1] <= 0
 R81: - w[1,1] + zeta[80,1] <= 0
 R82: - w[1,1] + zeta[81,1] <= 0
 R83: - w[1,1] + zeta[82,1] <= 0
 R84: - w[1,0] + zeta[83,1] <= 0
 R85: - w[1,1] + zeta[84,1] <= 0
 R86: - w[1,1] + zeta[85,1] <= 0
 R87: - w[1,0] + zeta[86,1] <= 0
 R88: - w[1,1] + zeta[87,1] <= 0
 R89: - w[1,1] + zeta[88,1] <= 0
 R90: - w[1,1] + zeta[89,1] <= 0
 R91: - w[1,1] + zeta[90,1] <= 0
 R92: - w[1,1] + zeta[91,1] <= 0
 R93: - w[1,1] + zeta[92,1] <= 0
 R94: - w[1,0] + zeta[93,1] <= 0
 R95: - w[1,0] + zeta[94,1] <= 0
 R96: - w[1,0] + zeta[95,1] <= 0
 R97: - w[1,1] + zeta[96,1] <= 0
 R98: - w[1,1] + zeta[97,1] <= 0
 R99: - w[1,1] + zeta[98,1] <= 0
 R100: - w[1,1] + zeta[99,1] <= 0
 R101: - p[1] + w[1,0] + w[1,1] = 0
 R102: zeta[0,1] - z[0,1] = 0
 R103: zeta[1,1] - z[1,1] = 0
 R104: zeta[2,1] - z[2,1] = 0
 R105: zeta[3,1] - z[3,1] = 0
 R106: zeta[4,1] - z[4,1] = 0
 R107: zeta[5,1] - z[5,1] = 0
 R108: zeta[6,1] - z[6,1] = 0
 R109: zeta[7,1] - z[7,1] = 0
 R110: zeta[8,1] - z[8,1] = 0
 R111: zeta[9,1] - z[9,1] = 0
 R112: zeta[10,1] - z[10,1] = 0
 R113: zeta[11,1] - z[11,1] = 0
 R114: zeta[12,1] - z[12,1] = 0
 R115: zeta[13,1] - z[13,1] = 0
 R116: zeta[14,1] - z[14,1] = 0
 R117: zeta[15,1] - z[15,1] = 0
 R118: zeta[16,1] - z[16,1] = 0
 R119: zeta[17,1] - z[17,1] = 0
 R120: zeta[18,1] - z[18,1] = 0
 R121: zeta[19,1] - z[19,1] = 0
 R122: zeta[20,1] - z[20,1] = 0
 R123: zeta[21,1] - z[21,1] = 0
 R124: zeta[22,1] - z[22,1] = 0
 R125: zeta[23,1] - z[23,1] = 0
 R126: zeta[24,1] - z[24,1] = 0
 R127: zeta[25,1] - z[25,1] = 0
 R128: zeta[26,1] - z[26,1] = 0
 R129: zeta[27,1] - z[27,1] = 0
 R130: zeta[28,1] - z[28,1] = 0
 R131: zeta[29,1] - z[29,1] = 0
 R132: zeta[30,1] - z[30,1] = 0
 R133: zeta[31,1] - z[31,1] = 0
 R134: zeta[32,1] - z[32,1] = 0
 R135: zeta[33,1] - z[33,1] = 0
 R136: zeta[34,1] - z[34,1] = 0
 R137: zeta[35,1] - z[35,1] = 0
 R138: zeta[36,1] - z[36,1] = 0
 R139: zeta[37,1] - z[37,1] = 0
 R140: zeta[38,1] - z[38,1] = 0
 R141: zeta[39,1] - z[39,1] = 0
 R142: zeta[40,1] - z[40,1] = 0
 R143: zeta[41,1] - z[41,1] = 0
 R144: zeta[42,1] - z[42,1] = 0
 R145: zeta[43,1] - z[43,1] = 0
 R146: zeta[44,1] - z[44,1] = 0
 R147: zeta[45,1] - z[45,1] = 0
 R148: zeta[46,1] - z[46,1] = 0
 R149: zeta[47,1] - z[47,1] = 0
 R150: zeta[48,1] - z[48,1] = 0
 R151: zeta[49,1] - z[49,1] = 0
 R152: zeta[50,1] - z[50,1] = 0
 R153: zeta[51,1] - z[51,1] = 0
 R154: zeta[52,1] - z[52,1] = 0
 R155: zeta[53,1] - z[53,1] = 0
 R156: zeta[54,1] - z[54,1] = 0
 R157: zeta[55,1] - z[55,1] = 0
 R158: zeta[56,1] - z[56,1] = 0
 R159: zeta[57,1] - z[57,1] = 0
 R160: zeta[58,1] - z[58,1] = 0
 R161: zeta[59,1] - z[59,1] = 0
 R162: zeta[60,1] - z[60,1] = 0
 R163: zeta[61,1] - z[61,1] = 0
 R164: zeta[62,1] - z[62,1] = 0
 R165: zeta[63,1] - z[63,1] = 0
 R166: zeta[64,1] - z[64,1] = 0
 R167: zeta[65,1] - z[65,1] = 0
 R168: zeta[66,1] - z[66,1] = 0
 R169: zeta[67,1] - z[67,1] = 0
 R170: zeta[68,1] - z[68,1] = 0
 R171: zeta[69,1] - z[69,1] = 0
 R172: zeta[70,1] - z[70,1] = 0
 R173: zeta[71,1] - z[71,1] = 0
 R174: zeta[72,1] - z[72,1] = 0
 R175: zeta[73,1] - z[73,1] = 0
 R176: zeta[74,1] - z[74,1] = 0
 R177: zeta[75,1] - z[75,1] = 0
 R178: zeta[76,1] - z[76,1] = 0
 R179: zeta[77,1] - z[77,1] = 0
 R180: zeta[78,1] - z[78,1] = 0
 R181: zeta[79,1] - z[79,1] = 0
 R182: zeta[80,1] - z[80,1] = 0
 R183: zeta[81,1] - z[81,1] = 0
 R184: zeta[82,1] - z[82,1] = 0
 R185: zeta[83,1] - z[83,1] = 0
 R186: zeta[84,1] - z[84,1] = 0
 R187: zeta[85,1] - z[85,1] = 0
 R188: zeta[86,1] - z[86,1] = 0
 R189: zeta[87,1] - z[87,1] = 0
 R190: zeta[88,1] - z[88,1] = 0
 R191: zeta[89,1] - z[89,1] = 0
 R192: zeta[90,1] - z[90,1] = 0
 R193: zeta[91,1] - z[91,1] = 0
 R194: zeta[92,1] - z[92,1] = 0
 R195: zeta[93,1] - z[93,1] = 0
 R196: zeta[94,1] - z[94,1] = 0
 R197: zeta[95,1] - z[95,1] = 0
 R198: zeta[96,1] - z[96,1] = 0
 R199: zeta[97,1] - z[97,1] = 0
 R200: zeta[98,1] - z[98,1] = 0
 R201: zeta[99,1] - z[99,1] = 0
Bounds
Binaries
 p[1]
End
